
Gurobi 9.5.1 (linux64) logging started Wed Mar  9 18:05:02 2022

Set parameter LogFile to value "../results/logs/log_2022_03_09_17_57.csv_5_80.log"
Set parameter Method to value 3
Gurobi Optimizer version 9.5.1 build v9.5.1rc2 (linux64)
Thread count: 8 physical cores, 8 logical processors, using up to 8 threads
Optimize a model with 1783 rows, 9882 columns and 22585 nonzeros
Model fingerprint: 0x10cbcd57
Variable types: 4941 continuous, 4941 integer (4941 binary)
Coefficient statistics:
  Matrix range     [1e+00, 5e+00]
  Objective range  [1e+00, 1e+00]
  Bounds range     [1e+00, 1e+00]
  RHS range        [1e+00, 8e+01]
Found heuristic solution: objective 12.0000000
Presolve removed 944 rows and 8566 columns
Presolve time: 0.03s
Presolved: 839 rows, 1316 columns, 4810 nonzeros
Variable types: 741 continuous, 575 integer (555 binary)
Found heuristic solution: objective 30.0000000

Concurrent LP optimizer: primal simplex, dual simplex, and barrier
Showing barrier log only...

Root barrier log...

Ordering time: 0.00s

Barrier statistics:
 AA' NZ     : 3.463e+03
 Factor NZ  : 9.369e+03 (roughly 1 MB of memory)
 Factor Ops : 1.271e+05 (less than 1 second per iteration)
 Threads    : 1

                  Objective                Residual
Iter       Primal          Dual         Primal    Dual     Compl     Time
   0   2.28311797e+03  1.81749882e+03  1.80e+03 8.41e-01  8.79e+00     0s
   1   4.16890060e+02  1.89407948e+03  2.17e+02 2.44e-15  1.37e+00     0s
   2   2.20091274e+02  6.40885752e+02  3.32e+01 1.55e-15  2.30e-01     0s
   3   1.61737927e+02  2.36220229e+02  2.23e+00 2.11e-15  2.83e-02     0s
   4   1.68845754e+02  1.90983858e+02  2.43e-01 2.95e-15  7.19e-03     0s
   5   1.71766186e+02  1.80939412e+02  1.13e-01 3.30e-15  3.00e-03     0s
   6   1.73397594e+02  1.76667074e+02  5.05e-02 3.10e-15  1.09e-03     0s
   7   1.74046984e+02  1.75246925e+02  2.63e-02 2.59e-15  4.16e-04     0s
   8   1.74724771e+02  1.74835728e+02  2.08e-03 2.57e-15  3.77e-05     0s
   9   1.74799103e+02  1.74803862e+02  7.05e-05 1.91e-15  1.57e-06     0s
  10   1.74802868e+02  1.74802900e+02  1.38e-07 2.35e-15  9.80e-09     0s
  11   1.74802886e+02  1.74802886e+02  1.49e-12 3.22e-15  1.31e-14     0s

Barrier solved model in 11 iterations and 0.04 seconds (0.04 work units)
Optimal objective 1.74802886e+02


Solved with barrier

Root relaxation: objective 1.748029e+02, 239 iterations, 0.01 seconds (0.01 work units)

    Nodes    |    Current Node    |     Objective Bounds      |     Work
 Expl Unexpl |  Obj  Depth IntInf | Incumbent    BestBd   Gap | It/Node Time

     0     0  174.80289    0  292   30.00000  174.80289   483%     -    0s
H    0     0                      68.0000000  174.80289   157%     -    0s
     0     0  129.27829    0  146   68.00000  129.27829  90.1%     -    0s
     0     0  127.67486    0  146   68.00000  127.67486  87.8%     -    0s
     0     0  127.32553    0  132   68.00000  127.32553  87.2%     -    0s
     0     0  127.29697    0  132   68.00000  127.29697  87.2%     -    0s
     0     0  119.54840    0  124   68.00000  119.54840  75.8%     -    0s
     0     0  118.83679    0   99   68.00000  118.83679  74.8%     -    0s
     0     0  118.73710    0  106   68.00000  118.73710  74.6%     -    0s
     0     0  118.71046    0  113   68.00000  118.71046  74.6%     -    0s
     0     0  117.54100    0  118   68.00000  117.54100  72.9%     -    0s
H    0     0                      74.0000000  117.34099  58.6%     -    0s
     0     0  117.34099    0  105   74.00000  117.34099  58.6%     -    0s
     0     0  117.28300    0   95   74.00000  117.28300  58.5%     -    0s
     0     0  116.77780    0   94   74.00000  116.77780  57.8%     -    0s
     0     0  116.69119    0   97   74.00000  116.69119  57.7%     -    0s
     0     0  116.60860    0  101   74.00000  116.60860  57.6%     -    0s
     0     0  116.60004    0  101   74.00000  116.60004  57.6%     -    0s
H    0     0                     104.0000000  116.60004  12.1%     -    0s
     0     0  116.51782    0   84  104.00000  116.51782  12.0%     -    0s
     0     0  116.42624    0   93  104.00000  116.42624  11.9%     -    0s
     0     0  116.40796    0   89  104.00000  116.40796  11.9%     -    0s
     0     0  116.32487    0   69  104.00000  116.32487  11.9%     -    0s
H    0     0                     105.0000000  116.32487  10.8%     -    0s
     0     0  116.32223    0   72  105.00000  116.32223  10.8%     -    0s
     0     0  116.13757    0   89  105.00000  116.13757  10.6%     -    0s
     0     0  116.13757    0   89  105.00000  116.13757  10.6%     -    0s
     0     2  116.13757    0   89  105.00000  116.13757  10.6%     -    0s
H  130   143                     106.0000000  115.53613  9.00%  35.4    0s
*  363   407              48     111.0000000  115.53613  4.09%  23.9    0s
H  889   473                     112.0000000  115.30883  2.95%  26.0    0s
H  995   437                     113.0000000  115.06687  1.83%  27.7    1s

Cutting planes:
  Gomory: 97
  Implied bound: 12
  MIR: 425
  RLT: 72
  Relax-and-lift: 25

Explored 1980 nodes (56568 simplex iterations) in 1.22 seconds (1.65 work units)
Thread count was 8 (of 8 available processors)

Solution count 10: 113 112 111 ... 12

Optimal solution found (tolerance 1.00e-04)
Best objective 1.130000000000e+02, best bound 1.130000000000e+02, gap 0.0000%
